n = 48;
rows = 118;
supports = [|
  {1},2..13,
 |{1},37..48,
 |{2},{1},
 |{2},3..14,
 |{2},38..48,
 |{3},1..2,
 |{3},4..15,
 |{3},39..48,
 |{4},1..3,
 |{4},5..16,
 |{4},40..48,
 |{5},1..4,
 |{5},6..17,
 |{5},41..48,
 |{6},1..5,
 |{6},7..18,
 |{6},42..48,
 |{7},1..6,
 |{7},8..19,
 |{7},43..48,
 |{8},1..7,
 |{8},9..20,
 |{8},44..48,
 |{9},1..8,
 |{9},10..21,
 |{9},45..48,
 |{10},1..9,
 |{10},11..22,
 |{10},46..48,
 |{11},1..10,
 |{11},12..23,
 |{11},47..48,
 |{12},1..11,
 |{12},13..24,
 |{12},{48},
 |{13},1..12,
 |{13},14..25,
 |{14},2..13,
 |{14},15..26,
 |{15},3..14,
 |{15},16..27,
 |{16},4..15,
 |{16},17..28,
 |{17},5..16,
 |{17},18..29,
 |{18},6..17,
 |{18},19..30,
 |{19},7..18,
 |{19},20..31,
 |{20},8..19,
 |{20},21..32,
 |{21},9..20,
 |{21},22..33,
 |{22},10..21,
 |{22},23..34,
 |{23},11..22,
 |{23},24..35,
 |{24},12..23,
 |{24},25..36,
 |{25},13..24,
 |{25},26..37,
 |{26},14..25,
 |{26},27..38,
 |{27},15..26,
 |{27},28..39,
 |{28},16..27,
 |{28},29..40,
 |{29},17..28,
 |{29},30..41,
 |{30},18..29,
 |{30},31..42,
 |{31},19..30,
 |{31},32..43,
 |{32},20..31,
 |{32},33..44,
 |{33},21..32,
 |{33},34..45,
 |{34},22..33,
 |{34},35..46,
 |{35},23..34,
 |{35},36..47,
 |{36},24..35,
 |{36},37..48,
 |{37},25..36,
 |{37},38..48,
 |{37},{1},
 |{38},26..37,
 |{38},39..48,
 |{38},1..2,
 |{39},27..38,
 |{39},40..48,
 |{39},1..3,
 |{40},28..39,
 |{40},41..48,
 |{40},1..4,
 |{41},29..40,
 |{41},42..48,
 |{41},1..5,
 |{42},30..41,
 |{42},43..48,
 |{42},1..6,
 |{43},31..42,
 |{43},44..48,
 |{43},1..7,
 |{44},32..43,
 |{44},45..48,
 |{44},1..8,
 |{45},33..44,
 |{45},46..48,
 |{45},1..9,
 |{46},34..45,
 |{46},47..48,
 |{46},1..10,
 |{47},35..46,
 |{47},{48},
 |{47},1..11,
 |{48},36..47,
 |{48},1..12 |];

t = 176;

indexes = [|
    0,8,
  | 0,11,
  | 0,14,
  | 0,15,
  | 0,23,
  | 0,29,
  | 0,31,
  | 1,2,
  | 1,3,
  | 1,8,
  | 1,22,
  | 1,44,
  | 1,45,
  | 2,3,
  | 2,8,
  | 2,26,
  | 3,8,
  | 3,27,
  | 3,33,
  | 3,36,
  | 3,42,
  | 4,5,
  | 4,7,
  | 4,18,
  | 4,19,
  | 4,20,
  | 4,22,
  | 4,24,
  | 5,9,
  | 5,13,
  | 5,18,
  | 5,21,
  | 5,22,
  | 5,25,
  | 6,7,
  | 6,14,
  | 6,19,
  | 6,20,
  | 6,33,
  | 6,38,
  | 6,43,
  | 6,46,
  | 7,14,
  | 7,19,
  | 7,20,
  | 7,24,
  | 7,33,
  | 7,38,
  | 7,46,
  | 8,10,
  | 8,11,
  | 8,14,
  | 9,11,
  | 9,12,
  | 9,13,
  | 9,21,
  | 9,23,
  | 9,25,
  | 9,28,
  | 9,30,
  | 9,41,
  | 10,26,
  | 10,27,
  | 10,28,
  | 10,31,
  | 10,45,
  | 10,46,
  | 11,14,
  | 11,28,
  | 11,30,
  | 11,41,
  | 12,13,
  | 12,17,
  | 12,21,
  | 12,25,
  | 12,28,
  | 12,30,
  | 12,40,
  | 12,41,
  | 13,17,
  | 13,19,
  | 13,21,
  | 13,25,
  | 13,28,
  | 13,30,
  | 13,42,
  | 13,47,
  | 14,33,
  | 14,46,
  | 15,16,
  | 15,32,
  | 15,37,
  | 16,18,
  | 16,21,
  | 16,23,
  | 16,32,
  | 16,37,
  | 16,47,
  | 17,25,
  | 17,34,
  | 17,36,
  | 17,39,
  | 17,41,
  | 18,22,
  | 18,23,
  | 18,35,
  | 18,47,
  | 19,20,
  | 19,33,
  | 19,38,
  | 19,39,
  | 19,42,
  | 19,46,
  | 19,47,
  | 20,24,
  | 20,38,
  | 20,39,
  | 20,46,
  | 21,30,
  | 21,40,
  | 22,42,
  | 22,44,
  | 22,45,
  | 23,29,
  | 23,31,
  | 23,47,
  | 24,38,
  | 24,43,
  | 24,45,
  | 24,46,
  | 25,28,
  | 25,30,
  | 25,41,
  | 26,27,
  | 26,32,
  | 26,40,
  | 26,43,
  | 26,45,
  | 27,36,
  | 27,38,
  | 27,42,
  | 27,45,
  | 28,30,
  | 28,31,
  | 28,40,
  | 28,41,
  | 28,46,
  | 29,31,
  | 29,34,
  | 29,35,
  | 29,37,
  | 29,41,
  | 30,40,
  | 31,32,
  | 31,46,
  | 32,37,
  | 32,40,
  | 32,43,
  | 33,38,
  | 33,39,
  | 34,35,
  | 34,36,
  | 34,37,
  | 34,39,
  | 34,47,
  | 35,37,
  | 36,39,
  | 36,42,
  | 36,44,
  | 38,39,
  | 38,43,
  | 38,46,
  | 40,43,
  | 42,47,
  | 43,46,
  | 44,45 |];

